c read Graph
c width = 37
c time = 491 ms
c width = 4
c time = 628 ms
c width = 4
c time = 4505 ms
s td 44 5 48
b 1 1 2 13
b 2 2 3 13 14
b 3 10 11 23 24
b 4 3 13 14 25
b 5 10 23 24 36
b 6 25 26 38 39
b 7 35 36 46 47
b 8 3 4 5 16
b 9 5 6 7 18
b 10 7 8 9 20
b 11 3 14 15 25 26
b 12 3 15 25 26 39
b 13 3 15 26 27 39
b 14 3 15 16 27 39
b 15 3 5 16 27 39
b 16 5 16 27 28 39
b 17 5 16 17 28 39
b 18 5 17 28 39 40
b 19 5 17 28 29 40
b 20 5 17 18 29 40
b 21 5 7 18 29 40
b 22 7 18 29 40 41
b 23 7 18 29 30 41
b 24 7 18 19 30 41
b 25 7 19 30 41 42
b 26 7 19 30 31 42
b 27 7 19 20 31 42
b 28 7 9 20 31 42
b 29 9 20 31 42 43
b 30 9 20 31 32 43
b 31 9 20 21 32 43
b 32 9 21 32 43 44
b 33 9 21 32 33 44
b 34 9 21 33 44 45
b 35 9 10 21 33 45
b 36 10 21 22 33 45
b 37 10 22 33 34 45
b 38 10 22 23 34 45
b 39 10 23 34 36 45
b 40 23 34 35 36 45
b 41 34 35 36 45 46
b 42 36 47 48
b 43 25 37 38
b 44 11 12 24
1 2
2 4
3 44
3 5
4 11
5 39
6 43
6 12
7 42
7 41
8 15
9 21
10 28
11 12
12 13
13 14
14 15
15 16
16 17
17 18
18 19
19 20
20 21
21 22
22 23
23 24
24 25
25 26
26 27
27 28
28 29
29 30
30 31
31 32
32 33
33 34
34 35
35 36
36 37
37 38
38 39
39 40
40 41
